p cnf 13 32
13 12 -8 0
-13 9 -7 0
-13 9 1 0
-13 -8 -4 0
13 8 4 0
13 -8 3 0
13 7 -2 0
13 7 1 0
-12 -10 9 0
-12 -9 1 0
12 7 4 0
12 6 5 0
12 -3 1 0
12 2 -1 0
11 -6 4 0
-11 3 -2 0
10 9 -1 0
10 2 1 0
9 -7 1 0
-9 6 5 0
-9 3 1 0
8 -7 -2 0
-8 -6 3 0
-8 -6 -2 0
-8 5 2 0
8 5 2 0
-8 3 2 0
7 5 -3 0
6 5 -3 0
6 -3 1 0
4 3 -2 0
-4 2 1 0
